123 71 72 65 66 67 68 70 69 124 138 137 130 129 128 127 125 126 116 115 114 112 113 131 132 133 134 135 136 139 140 141 144 145 158 157 146 143 142 151 150 149 152 148 147 153 156 159 155 154 160 161 162 168 163 167 166 164 165 201 200 199 198 202 204 203 208 207 206 205 209 210 211 212 213 214 215 216 217 223 224 222 221 220 218 219 193 194 195 196 197 184 185 183 181 179 180 169 170 171 175 174 173 172 111 110 109 108 107 542 541 543 544 547 546 545 548 549 551 550 559 558 560 561 562 563 564 565 566 567 475 476 477 478 479 480 481 482 483 485 484 536 537 539 538 540 176 177 178 187 188 182 186 192 191 190 226 225 189 227 228 229 230 231 533 532 531 530 489 488 534 535 487 486 490 491 492 493 524 525 526 523 522 521 520 517 514 515 516 509 510 511 513 512 527 528 529 234 233 232 235 236 237 240 239 238 246 247 245 244 243 242 241 248 249 250 251 252 254 253 255 256 257 300 301 302 508 507 506 307 303 304 306 305 318 317 319 320 321 297 298 299 258 259 260 261 262 263 264 265 266 267 271 272 269 268 270 296 295 294 293 291 292 273 274 275 290 289 288 276 277 278 279 282 281 280 287 286 285 284 283 334 335 336 337 338 339 333 332 331 330 340 341 344 343 342 366 329 328 327 326 325 324 323 322 373 374 315 314 316 313 312 311 310 309 308 505 504 503 502 498 499 500 501 451 450 441 449 448 447 446 442 443 444 445 431 382 386 385 383 384 410 418 411 412 356 355 353 354 357 358 359 361 362 363 360 401 402 403 400 406 405 404 409 408 407 399 398 397 394 393 392 391 387 388 389 390 381 380 379 378 377 376 375 395 396 371 372 370 369 368 367 365 364 346 345 347 348 349 350 351 352 415 416 414 413 417 419 420 421 422 423 424 425 426 427 428 429 430 432 433 434 435 436 437 438 439 440 453 452 461 462 463 460 459 458 457 456 454 455 3 2 1 4 0 5 6 572 573 571 468 469 467 466 465 464 496 497 519 518 494 495 470 471 472 473 474 570 569 568 20 19 18 17 8 7 9 10 11 16 15 14 13 12 23 22 21 24 25 26 27 28 29 31 30 32 33 34 35 36 37 38 40 41 39 42 43 44 45 46 47 48 49 54 55 56 58 59 60 61 63 62 64 76 75 73 74 77 78 79 80 81 57 82 83 53 52 50 51 84 85 86 90 87 88 89 93 92 91 555 556 557 552 553 554 97 94 95 96 98 99 100 101 102 103 104 105 106 117 118 119 120 121 122